40
1 0 9
2 0 1
2 1 2
3 0 8
3 1 5
3 2 8
4 0 5
4 1 5
4 2 7
4 3 5
5 0 5
5 1 1
5 2 7
5 3 2
5 4 3
6 0 1
6 1 3
6 2 9
6 3 2
6 4 4
6 5 8
7 0 4
7 1 7
7 2 7
7 3 1
7 4 3
7 5 9
7 6 2
8 0 5
8 1 1
8 2 3
8 3 4
8 4 8
8 5 6
8 6 5
8 7 5
9 0 3
9 1 5
9 2 5
9 3 2
9 4 7
9 5 9
9 6 4
9 7 6
9 8 1
10 0 7
10 1 5
10 2 7
10 3 8
10 4 5
10 5 9
10 6 9
10 7 4
10 8 1
10 9 4
11 0 4
11 1 4
11 2 2
11 3 4
11 4 1
11 5 7
11 6 7
11 7 7
11 8 9
11 9 2
11 10 1
12 0 8
12 1 4
12 2 6
12 3 4
12 4 7
12 5 3
12 6 7
12 7 3
12 8 4
12 9 1
12 10 1
12 11 9
13 0 4
13 1 8
13 2 5
13 3 4
13 4 4
13 5 6
13 6 3
13 7 4
13 8 9
13 9 5
13 10 4
13 11 4
13 12 5
14 0 3
14 1 1
14 2 4
14 3 2
14 4 8
14 5 2
14 6 2
14 7 5
14 8 7
14 9 6
14 10 6
14 11 1
14 12 8
14 13 1
15 0 3
15 1 2
15 2 6
15 3 7
15 4 1
15 5 4
15 6 3
15 7 4
15 8 4
15 9 3
15 10 1
15 11 2
15 12 3
15 13 7
15 14 3
16 0 1
16 1 5
16 2 4
16 3 6
16 4 3
16 5 6
16 6 4
16 7 2
16 8 2
16 9 3
16 10 8
16 11 8
16 12 1
16 13 5
16 14 6
16 15 4
17 0 2
17 1 7
17 2 5
17 3 3
17 4 3
17 5 3
17 6 9
17 7 3
17 8 4
17 9 4
17 10 9
17 11 9
17 12 3
17 13 9
17 14 1
17 15 6
17 16 2
18 0 4
18 1 7
18 2 9
18 3 1
18 4 6
18 5 4
18 6 7
18 7 6
18 8 7
18 9 7
18 10 2
18 11 5
18 12 1
18 13 6
18 14 4
18 15 8
18 16 9
18 17 6
19 0 4
19 1 5
19 2 2
19 3 5
19 4 5
19 5 5
19 6 8
19 7 3
19 8 6
19 9 5
19 10 1
19 11 4
19 12 6
19 13 8
19 14 1
19 15 6
19 16 7
19 17 9
19 18 6
20 0 1
20 1 7
20 2 4
20 3 2
20 4 3
20 5 7
20 6 6
20 7 6
20 8 6
20 9 2
20 10 3
20 11 3
20 12 9
20 13 7
20 14 2
20 15 6
20 16 2
20 17 3
20 18 6
20 19 2
21 0 2
21 1 7
21 2 7
21 3 3
21 4 2
21 5 3
21 6 5
21 7 4
21 8 2
21 9 6
21 10 3
21 11 4
21 12 3
21 13 8
21 14 6
21 15 1
21 16 8
21 17 9
21 18 4
21 19 3
21 20 7
22 0 7
22 1 6
22 2 7
22 3 6
22 4 8
22 5 3
22 6 1
22 7 7
22 8 4
22 9 2
22 10 1
22 11 4
22 12 8
22 13 7
22 14 5
22 15 2
22 16 1
22 17 9
22 18 2
22 19 3
22 20 4
22 21 7
23 0 2
23 1 3
23 2 9
23 3 2
23 4 5
23 5 9
23 6 2
23 7 7
23 8 3
23 9 6
23 10 1
23 11 3
23 12 9
23 13 4
23 14 8
23 15 5
23 16 6
23 17 4
23 18 1
23 19 1
23 20 6
23 21 1
23 22 9
24 0 5
24 1 4
24 2 6
24 3 9
24 4 6
24 5 6
24 6 1
24 7 3
24 8 5
24 9 5
24 10 7
24 11 8
24 12 7
24 13 2
24 14 5
24 15 5
24 16 6
24 17 8
24 18 9
24 19 1
24 20 2
24 21 3
24 22 3
24 23 2
25 0 2
25 1 4
25 2 4
25 3 1
25 4 7
25 5 8
25 6 4
25 7 3
25 8 3
25 9 8
25 10 8
25 11 3
25 12 9
25 13 3
25 14 4
25 15 1
25 16 8
25 17 9
25 18 5
25 19 2
25 20 1
25 21 3
25 22 6
25 23 3
25 24 2
26 0 1
26 1 3
26 2 7
26 3 8
26 4 3
26 5 9
26 6 6
26 7 4
26 8 1
26 9 5
26 10 8
26 11 4
26 12 1
26 13 3
26 14 2
26 15 1
26 16 8
26 17 4
26 18 5
26 19 1
26 20 4
26 21 2
26 22 9
26 23 2
26 24 2
26 25 8
27 0 3
27 1 8
27 2 9
27 3 4
27 4 8
27 5 8
27 6 9
27 7 4
27 8 6
27 9 6
27 10 6
27 11 5
27 12 2
27 13 2
27 14 1
27 15 8
27 16 1
27 17 2
27 18 9
27 19 9
27 20 3
27 21 1
27 22 4
27 23 1
27 24 6
27 25 2
27 26 8
28 0 5
28 1 1
28 2 1
28 3 2
28 4 3
28 5 7
28 6 1
28 7 5
28 8 7
28 9 9
28 10 4
28 11 7
28 12 1
28 13 7
28 14 8
28 15 2
28 16 2
28 17 3
28 18 8
28 19 7
28 20 4
28 21 7
28 22 3
28 23 1
28 24 8
28 25 4
28 26 6
28 27 3
29 0 7
29 1 2
29 2 1
29 3 2
29 4 2
29 5 8
29 6 8
29 7 2
29 8 7
29 9 8
29 10 2
29 11 2
29 12 8
29 13 9
29 14 4
29 15 2
29 16 9
29 17 7
29 18 6
29 19 2
29 20 3
29 21 8
29 22 9
29 23 1
29 24 1
29 25 9
29 26 5
29 27 3
29 28 9
30 0 4
30 1 8
30 2 8
30 3 6
30 4 5
30 5 5
30 6 2
30 7 8
30 8 3
30 9 2
30 10 1
30 11 1
30 12 7
30 13 1
30 14 5
30 15 8
30 16 7
30 17 2
30 18 3
30 19 9
30 20 1
30 21 6
30 22 7
30 23 2
30 24 6
30 25 3
30 26 5
30 27 5
30 28 3
30 29 4
31 0 7
31 1 6
31 2 5
31 3 2
31 4 6
31 5 3
31 6 7
31 7 3
31 8 1
31 9 4
31 10 1
31 11 7
31 12 3
31 13 7
31 14 3
31 15 6
31 16 8
31 17 9
31 18 3
31 19 8
31 20 7
31 21 1
31 22 2
31 23 8
31 24 6
31 25 4
31 26 1
31 27 6
31 28 5
31 29 9
31 30 6
32 0 6
32 1 4
32 2 4
32 3 1
32 4 1
32 5 9
32 6 9
32 7 1
32 8 4
32 9 8
32 10 7
32 11 4
32 12 8
32 13 5
32 14 4
32 15 6
32 16 4
32 17 7
32 18 1
32 19 3
32 20 8
32 21 6
32 22 6
32 23 6
32 24 8
32 25 3
32 26 5
32 27 8
32 28 2
32 29 3
32 30 5
32 31 9
33 0 3
33 1 5
33 2 2
33 3 4
33 4 6
33 5 8
33 6 4
33 7 1
33 8 3
33 9 5
33 10 9
33 11 6
33 12 2
33 13 9
33 14 8
33 15 2
33 16 1
33 17 7
33 18 8
33 19 6
33 20 6
33 21 1
33 22 8
33 23 2
33 24 5
33 25 7
33 26 1
33 27 5
33 28 2
33 29 3
33 30 2
33 31 5
33 32 5
34 0 8
34 1 3
34 2 2
34 3 3
34 4 1
34 5 6
34 6 4
34 7 8
34 8 4
34 9 7
34 10 4
34 11 7
34 12 4
34 13 1
34 14 6
34 15 5
34 16 5
34 17 8
34 18 7
34 19 4
34 20 8
34 21 5
34 22 3
34 23 4
34 24 7
34 25 1
34 26 4
34 27 9
34 28 2
34 29 2
34 30 9
34 31 3
34 32 4
34 33 2
35 0 2
35 1 4
35 2 4
35 3 3
35 4 5
35 5 7
35 6 9
35 7 7
35 8 9
35 9 3
35 10 7
35 11 5
35 12 3
35 13 7
35 14 6
35 15 6
35 16 2
35 17 4
35 18 3
35 19 1
35 20 8
35 21 2
35 22 7
35 23 9
35 24 9
35 25 1
35 26 1
35 27 1
35 28 8
35 29 1
35 30 1
35 31 8
35 32 9
35 33 2
35 34 2
36 0 8
36 1 5
36 2 5
36 3 3
36 4 6
36 5 7
36 6 1
36 7 4
36 8 5
36 9 1
36 10 8
36 11 7
36 12 8
36 13 3
36 14 2
36 15 5
36 16 5
36 17 5
36 18 4
36 19 6
36 20 6
36 21 5
36 22 3
36 23 4
36 24 8
36 25 3
36 26 2
36 27 4
36 28 6
36 29 8
36 30 9
36 31 7
36 32 4
36 33 1
36 34 4
36 35 7
37 0 9
37 1 3
37 2 3
37 3 5
37 4 8
37 5 1
37 6 9
37 7 4
37 8 8
37 9 2
37 10 6
37 11 6
37 12 4
37 13 8
37 14 5
37 15 2
37 16 1
37 17 1
37 18 4
37 19 7
37 20 9
37 21 4
37 22 1
37 23 3
37 24 5
37 25 6
37 26 1
37 27 9
37 28 1
37 29 1
37 30 4
37 31 2
37 32 6
37 33 6
37 34 3
37 35 9
37 36 6
38 0 1
38 1 4
38 2 3
38 3 3
38 4 7
38 5 2
38 6 7
38 7 3
38 8 5
38 9 7
38 10 6
38 11 9
38 12 6
38 13 2
38 14 2
38 15 8
38 16 4
38 17 2
38 18 5
38 19 4
38 20 5
38 21 3
38 22 6
38 23 6
38 24 5
38 25 2
38 26 5
38 27 3
38 28 4
38 29 6
38 30 6
38 31 6
38 32 3
38 33 4
38 34 9
38 35 3
38 36 3
38 37 9
39 0 4
39 1 8
39 2 3
39 3 6
39 4 6
39 5 2
39 6 3
39 7 9
39 8 1
39 9 8
39 10 1
39 11 3
39 12 9
39 13 4
39 14 7
39 15 1
39 16 1
39 17 5
39 18 8
39 19 3
39 20 4
39 21 7
39 22 7
39 23 7
39 24 5
39 25 2
39 26 2
39 27 3
39 28 9
39 29 4
39 30 9
39 31 7
39 32 3
39 33 4
39 34 6
39 35 1
39 36 8
39 37 7
39 38 7
